p cnf 324 1
324 0
w 1 0.907519
w 2 1 0
w 2 -1 1
w 3 2 0
w 3 -2 1
w 4 3 0
w 4 -3 1
w 5 4 1
w 5 -4 0
w 6 5 0.265115
w 6 -5 0.00910659
w 7 6 0
w 7 -6 1
w 8 7 1
w 8 -7 0
w 9 8 0
w 9 -8 1
w 10 9 0.449604
w 10 -9 0.358039
w 11 10 0
w 11 -10 1
w 12 11 1
w 12 -11 0
w 13 12 0
w 13 -12 1
w 14 13 1
w 14 -13 0
w 15 14 0
w 15 -14 1
w 16 15 0
w 16 -15 1
w 17 16 0
w 17 -16 1
w 18 17 0.830645
w 18 -17 0.452741
w 19 1 0
w 19 -1 1
w 20 19 2 0
w 20 19 -2 1
w 20 -19 2 0
w 20 -19 -2 0
w 21 20 3 0.38748
w 21 20 -3 0.0170626
w 21 -20 3 0.648709
w 21 -20 -3 0.837084
w 22 21 4 0
w 22 21 -4 0
w 22 -21 4 1
w 22 -21 -4 1
w 23 22 5 1
w 23 22 -5 1
w 23 -22 5 0
w 23 -22 -5 0
w 24 23 6 1
w 24 23 -6 0
w 24 -23 6 0
w 24 -23 -6 1
w 25 24 7 0.801257
w 25 24 -7 0.424515
w 25 -24 7 0.536379
w 25 -24 -7 0.821944
w 26 25 8 0.343864
w 26 25 -8 0.851738
w 26 -25 8 0.507905
w 26 -25 -8 0.687463
w 27 26 9 0.271576
w 27 26 -9 0.0749434
w 27 -26 9 0.902713
w 27 -26 -9 0.920285
w 28 27 10 0.277815
w 28 27 -10 0.0947107
w 28 -27 10 0.077225
w 28 -27 -10 0.703148
w 29 28 11 1
w 29 28 -11 1
w 29 -28 11 0
w 29 -28 -11 1
w 30 29 12 0
w 30 29 -12 0
w 30 -29 12 1
w 30 -29 -12 0
w 31 30 13 0
w 31 30 -13 0
w 31 -30 13 1
w 31 -30 -13 0
w 32 31 14 0.644442
w 32 31 -14 0.332055
w 32 -31 14 0.795823
w 32 -31 -14 0.152347
w 33 32 15 0
w 33 32 -15 0
w 33 -32 15 1
w 33 -32 -15 1
w 34 33 16 1
w 34 33 -16 1
w 34 -33 16 1
w 34 -33 -16 0
w 35 34 17 0
w 35 34 -17 1
w 35 -34 17 1
w 35 -34 -17 1
w 36 35 18 1
w 36 35 -18 1
w 36 -35 18 0
w 36 -35 -18 0
w 37 19 0
w 37 -19 1
w 38 37 20 0.524591
w 38 37 -20 0.6322
w 38 -37 20 0.772591
w 38 -37 -20 0.169034
w 39 38 21 0.568414
w 39 38 -21 0.321381
w 39 -38 21 0.983774
w 39 -38 -21 0.249888
w 40 39 22 1
w 40 39 -22 0
w 40 -39 22 0
w 40 -39 -22 0
w 41 40 23 1
w 41 40 -23 1
w 41 -40 23 1
w 41 -40 -23 0
w 42 41 24 0
w 42 41 -24 1
w 42 -41 24 1
w 42 -41 -24 0
w 43 42 25 1
w 43 42 -25 0
w 43 -42 25 0
w 43 -42 -25 1
w 44 43 26 0
w 44 43 -26 1
w 44 -43 26 0
w 44 -43 -26 1
w 45 44 27 1
w 45 44 -27 0
w 45 -44 27 0
w 45 -44 -27 1
w 46 45 28 1
w 46 45 -28 0
w 46 -45 28 1
w 46 -45 -28 1
w 47 46 29 0
w 47 46 -29 1
w 47 -46 29 0
w 47 -46 -29 0
w 48 47 30 1
w 48 47 -30 0
w 48 -47 30 0
w 48 -47 -30 1
w 49 48 31 0.264201
w 49 48 -31 0.177083
w 49 -48 31 0.715473
w 49 -48 -31 0.384511
w 50 49 32 1
w 50 49 -32 0
w 50 -49 32 1
w 50 -49 -32 0
w 51 50 33 0.00611087
w 51 50 -33 0.201275
w 51 -50 33 0.554328
w 51 -50 -33 0.168814
w 52 51 34 1
w 52 51 -34 1
w 52 -51 34 1
w 52 -51 -34 0
w 53 52 35 0.442242
w 53 52 -35 0.228543
w 53 -52 35 0.812529
w 53 -52 -35 0.187613
w 54 53 36 1
w 54 53 -36 0
w 54 -53 36 1
w 54 -53 -36 0
w 55 37 0
w 55 -37 1
w 56 55 38 0
w 56 55 -38 1
w 56 -55 38 0
w 56 -55 -38 1
w 57 56 39 0.889957
w 57 56 -39 0.0374984
w 57 -56 39 0.285751
w 57 -56 -39 0.743745
w 58 57 40 1
w 58 57 -40 1
w 58 -57 40 0
w 58 -57 -40 1
w 59 58 41 1
w 59 58 -41 0
w 59 -58 41 0
w 59 -58 -41 0
w 60 59 42 0.0563244
w 60 59 -42 0.04899
w 60 -59 42 0.142455
w 60 -59 -42 0.34706
w 61 60 43 1
w 61 60 -43 1
w 61 -60 43 0
w 61 -60 -43 0
w 62 61 44 1
w 62 61 -44 0
w 62 -61 44 0
w 62 -61 -44 1
w 63 62 45 0.380101
w 63 62 -45 0.480855
w 63 -62 45 0.922137
w 63 -62 -45 0.665852
w 64 63 46 1
w 64 63 -46 1
w 64 -63 46 0
w 64 -63 -46 1
w 65 64 47 1
w 65 64 -47 0
w 65 -64 47 0
w 65 -64 -47 1
w 66 65 48 0.819791
w 66 65 -48 0.0379564
w 66 -65 48 0.841635
w 66 -65 -48 0.962246
w 67 66 49 1
w 67 66 -49 1
w 67 -66 49 0
w 67 -66 -49 1
w 68 67 50 1
w 68 67 -50 0
w 68 -67 50 0
w 68 -67 -50 0
w 69 68 51 1
w 69 68 -51 0
w 69 -68 51 1
w 69 -68 -51 0
w 70 69 52 0.147235
w 70 69 -52 0.310339
w 70 -69 52 0.333476
w 70 -69 -52 0.325405
w 71 70 53 0
w 71 70 -53 0
w 71 -70 53 1
w 71 -70 -53 0
w 72 71 54 0
w 72 71 -54 0
w 72 -71 54 0
w 72 -71 -54 1
w 73 55 1
w 73 -55 0
w 74 73 56 0.399304
w 74 73 -56 0.433102
w 74 -73 56 0.385091
w 74 -73 -56 0.913753
w 75 74 57 0.496599
w 75 74 -57 0.0190994
w 75 -74 57 0.0671652
w 75 -74 -57 0.988207
w 76 75 58 0
w 76 75 -58 1
w 76 -75 58 0
w 76 -75 -58 0
w 77 76 59 1
w 77 76 -59 0
w 77 -76 59 0
w 77 -76 -59 0
w 78 77 60 1
w 78 77 -60 0
w 78 -77 60 1
w 78 -77 -60 1
w 79 78 61 1
w 79 78 -61 0
w 79 -78 61 1
w 79 -78 -61 1
w 80 79 62 0.915107
w 80 79 -62 0.735368
w 80 -79 62 0.293144
w 80 -79 -62 0.82886
w 81 80 63 0
w 81 80 -63 0
w 81 -80 63 1
w 81 -80 -63 1
w 82 81 64 1
w 82 81 -64 0
w 82 -81 64 1
w 82 -81 -64 1
w 83 82 65 1
w 83 82 -65 1
w 83 -82 65 0
w 83 -82 -65 1
w 84 83 66 0
w 84 83 -66 1
w 84 -83 66 0
w 84 -83 -66 1
w 85 84 67 0.649165
w 85 84 -67 0.441857
w 85 -84 67 0.8792
w 85 -84 -67 0.164968
w 86 85 68 1
w 86 85 -68 0
w 86 -85 68 0
w 86 -85 -68 0
w 87 86 69 0.0226723
w 87 86 -69 0.870138
w 87 -86 69 0.756894
w 87 -86 -69 0.633019
w 88 87 70 0
w 88 87 -70 1
w 88 -87 70 1
w 88 -87 -70 1
w 89 88 71 0
w 89 88 -71 0
w 89 -88 71 0
w 89 -88 -71 1
w 90 89 72 1
w 90 89 -72 0
w 90 -89 72 0
w 90 -89 -72 0
w 91 73 0.174571
w 91 -73 0.769703
w 92 91 74 0.918694
w 92 91 -74 0.556955
w 92 -91 74 0.0525455
w 92 -91 -74 0.398185
w 93 92 75 1
w 93 92 -75 0
w 93 -92 75 0
w 93 -92 -75 0
w 94 93 76 0
w 94 93 -76 1
w 94 -93 76 1
w 94 -93 -76 0
w 95 94 77 1
w 95 94 -77 0
w 95 -94 77 0
w 95 -94 -77 0
w 96 95 78 1
w 96 95 -78 0
w 96 -95 78 0
w 96 -95 -78 1
w 97 96 79 0
w 97 96 -79 1
w 97 -96 79 1
w 97 -96 -79 1
w 98 97 80 0
w 98 97 -80 1
w 98 -97 80 1
w 98 -97 -80 0
w 99 98 81 1
w 99 98 -81 0
w 99 -98 81 0
w 99 -98 -81 1
w 100 99 82 0
w 100 99 -82 0
w 100 -99 82 0
w 100 -99 -82 1
w 101 100 83 0.260147
w 101 100 -83 0.300284
w 101 -100 83 0.631843
w 101 -100 -83 0.276043
w 102 101 84 0
w 102 101 -84 0
w 102 -101 84 1
w 102 -101 -84 1
w 103 102 85 0
w 103 102 -85 1
w 103 -102 85 1
w 103 -102 -85 1
w 104 103 86 0
w 104 103 -86 0
w 104 -103 86 0
w 104 -103 -86 1
w 105 104 87 0
w 105 104 -87 0
w 105 -104 87 0
w 105 -104 -87 1
w 106 105 88 0
w 106 105 -88 1
w 106 -105 88 0
w 106 -105 -88 1
w 107 106 89 0
w 107 106 -89 0
w 107 -106 89 0
w 107 -106 -89 1
w 108 107 90 0
w 108 107 -90 1
w 108 -107 90 1
w 108 -107 -90 1
w 109 91 1
w 109 -91 0
w 110 109 92 1
w 110 109 -92 0
w 110 -109 92 0
w 110 -109 -92 1
w 111 110 93 1
w 111 110 -93 0
w 111 -110 93 0
w 111 -110 -93 0
w 112 111 94 0.63096
w 112 111 -94 0.942182
w 112 -111 94 0.512009
w 112 -111 -94 0.663325
w 113 112 95 0
w 113 112 -95 0
w 113 -112 95 1
w 113 -112 -95 1
w 114 113 96 1
w 114 113 -96 0
w 114 -113 96 0
w 114 -113 -96 1
w 115 114 97 1
w 115 114 -97 1
w 115 -114 97 1
w 115 -114 -97 0
w 116 115 98 1
w 116 115 -98 0
w 116 -115 98 0
w 116 -115 -98 0
w 117 116 99 0.446454
w 117 116 -99 0.348214
w 117 -116 99 0.759018
w 117 -116 -99 0.939447
w 118 117 100 0
w 118 117 -100 1
w 118 -117 100 1
w 118 -117 -100 1
w 119 118 101 1
w 119 118 -101 1
w 119 -118 101 0
w 119 -118 -101 0
w 120 119 102 0
w 120 119 -102 1
w 120 -119 102 0
w 120 -119 -102 0
w 121 120 103 1
w 121 120 -103 1
w 121 -120 103 1
w 121 -120 -103 0
w 122 121 104 0
w 122 121 -104 0
w 122 -121 104 1
w 122 -121 -104 0
w 123 122 105 0
w 123 122 -105 1
w 123 -122 105 0
w 123 -122 -105 1
w 124 123 106 1
w 124 123 -106 0
w 124 -123 106 0
w 124 -123 -106 0
w 125 124 107 1
w 125 124 -107 1
w 125 -124 107 0
w 125 -124 -107 1
w 126 125 108 1
w 126 125 -108 0
w 126 -125 108 0
w 126 -125 -108 1
w 127 109 0.564288
w 127 -109 0.684396
w 128 127 110 1
w 128 127 -110 0
w 128 -127 110 0
w 128 -127 -110 1
w 129 128 111 1
w 129 128 -111 0
w 129 -128 111 1
w 129 -128 -111 1
w 130 129 112 0
w 130 129 -112 0
w 130 -129 112 1
w 130 -129 -112 1
w 131 130 113 1
w 131 130 -113 1
w 131 -130 113 0
w 131 -130 -113 0
w 132 131 114 1
w 132 131 -114 0
w 132 -131 114 1
w 132 -131 -114 0
w 133 132 115 0
w 133 132 -115 1
w 133 -132 115 1
w 133 -132 -115 1
w 134 133 116 0
w 134 133 -116 0
w 134 -133 116 1
w 134 -133 -116 1
w 135 134 117 1
w 135 134 -117 0
w 135 -134 117 0
w 135 -134 -117 0
w 136 135 118 0
w 136 135 -118 1
w 136 -135 118 1
w 136 -135 -118 1
w 137 136 119 0.53013
w 137 136 -119 0.847496
w 137 -136 119 0.487356
w 137 -136 -119 0.371821
w 138 137 120 1
w 138 137 -120 1
w 138 -137 120 1
w 138 -137 -120 0
w 139 138 121 0
w 139 138 -121 1
w 139 -138 121 0
w 139 -138 -121 1
w 140 139 122 0
w 140 139 -122 1
w 140 -139 122 0
w 140 -139 -122 1
w 141 140 123 1
w 141 140 -123 0
w 141 -140 123 0
w 141 -140 -123 1
w 142 141 124 0
w 142 141 -124 1
w 142 -141 124 0
w 142 -141 -124 1
w 143 142 125 0
w 143 142 -125 1
w 143 -142 125 0
w 143 -142 -125 1
w 144 143 126 0
w 144 143 -126 1
w 144 -143 126 1
w 144 -143 -126 1
w 145 127 0.977517
w 145 -127 0.701205
w 146 145 128 1
w 146 145 -128 0
w 146 -145 128 1
w 146 -145 -128 1
w 147 146 129 1
w 147 146 -129 0
w 147 -146 129 1
w 147 -146 -129 0
w 148 147 130 0.293297
w 148 147 -130 0.946772
w 148 -147 130 0.577121
w 148 -147 -130 0.182284
w 149 148 131 0
w 149 148 -131 1
w 149 -148 131 0
w 149 -148 -131 0
w 150 149 132 0
w 150 149 -132 1
w 150 -149 132 0
w 150 -149 -132 1
w 151 150 133 1
w 151 150 -133 0
w 151 -150 133 0
w 151 -150 -133 0
w 152 151 134 0
w 152 151 -134 1
w 152 -151 134 0
w 152 -151 -134 1
w 153 152 135 0
w 153 152 -135 1
w 153 -152 135 0
w 153 -152 -135 1
w 154 153 136 0.681152
w 154 153 -136 0.473455
w 154 -153 136 0.741938
w 154 -153 -136 0.258273
w 155 154 137 1
w 155 154 -137 1
w 155 -154 137 1
w 155 -154 -137 0
w 156 155 138 0.537229
w 156 155 -138 0.159824
w 156 -155 138 0.11305
w 156 -155 -138 0.138386
w 157 156 139 1
w 157 156 -139 0
w 157 -156 139 0
w 157 -156 -139 1
w 158 157 140 0
w 158 157 -140 0
w 158 -157 140 1
w 158 -157 -140 0
w 159 158 141 1
w 159 158 -141 0
w 159 -158 141 0
w 159 -158 -141 1
w 160 159 142 0.0385218
w 160 159 -142 0.874244
w 160 -159 142 0.365174
w 160 -159 -142 0.780459
w 161 160 143 1
w 161 160 -143 0
w 161 -160 143 0
w 161 -160 -143 0
w 162 161 144 1
w 162 161 -144 0
w 162 -161 144 1
w 162 -161 -144 0
w 163 145 0.506295
w 163 -145 0.79181
w 164 163 146 0.229228
w 164 163 -146 0.200043
w 164 -163 146 0.964268
w 164 -163 -146 0.125413
w 165 164 147 1
w 165 164 -147 1
w 165 -164 147 1
w 165 -164 -147 0
w 166 165 148 0.921156
w 166 165 -148 0.541869
w 166 -165 148 0.673615
w 166 -165 -148 0.959678
w 167 166 149 1
w 167 166 -149 0
w 167 -166 149 1
w 167 -166 -149 0
w 168 167 150 1
w 168 167 -150 0
w 168 -167 150 1
w 168 -167 -150 1
w 169 168 151 0.767416
w 169 168 -151 0.575161
w 169 -168 151 0.836148
w 169 -168 -151 0.273711
w 170 169 152 1
w 170 169 -152 1
w 170 -169 152 0
w 170 -169 -152 1
w 171 170 153 0
w 171 170 -153 1
w 171 -170 153 1
w 171 -170 -153 1
w 172 171 154 0.558164
w 172 171 -154 0.154198
w 172 -171 154 0.799666
w 172 -171 -154 0.974277
w 173 172 155 1
w 173 172 -155 0
w 173 -172 155 1
w 173 -172 -155 0
w 174 173 156 1
w 174 173 -156 1
w 174 -173 156 0
w 174 -173 -156 1
w 175 174 157 0
w 175 174 -157 1
w 175 -174 157 1
w 175 -174 -157 1
w 176 175 158 0
w 176 175 -158 0
w 176 -175 158 0
w 176 -175 -158 1
w 177 176 159 1
w 177 176 -159 0
w 177 -176 159 0
w 177 -176 -159 0
w 178 177 160 0
w 178 177 -160 0
w 178 -177 160 0
w 178 -177 -160 1
w 179 178 161 0
w 179 178 -161 0
w 179 -178 161 1
w 179 -178 -161 0
w 180 179 162 0.0299181
w 180 179 -162 0.534763
w 180 -179 162 0.392987
w 180 -179 -162 0.265573
w 181 163 0.702061
w 181 -163 0.774939
w 182 181 164 1
w 182 181 -164 0
w 182 -181 164 0
w 182 -181 -164 0
w 183 182 165 1
w 183 182 -165 0
w 183 -182 165 0
w 183 -182 -165 1
w 184 183 166 1
w 184 183 -166 1
w 184 -183 166 0
w 184 -183 -166 1
w 185 184 167 0.728412
w 185 184 -167 0.702361
w 185 -184 167 0.428928
w 185 -184 -167 0.148215
w 186 185 168 0
w 186 185 -168 0
w 186 -185 168 0
w 186 -185 -168 1
w 187 186 169 0
w 187 186 -169 1
w 187 -186 169 1
w 187 -186 -169 0
w 188 187 170 1
w 188 187 -170 0
w 188 -187 170 0
w 188 -187 -170 1
w 189 188 171 1
w 189 188 -171 0
w 189 -188 171 0
w 189 -188 -171 1
w 190 189 172 0
w 190 189 -172 1
w 190 -189 172 1
w 190 -189 -172 0
w 191 190 173 1
w 191 190 -173 1
w 191 -190 173 1
w 191 -190 -173 0
w 192 191 174 0
w 192 191 -174 1
w 192 -191 174 0
w 192 -191 -174 0
w 193 192 175 0.0591794
w 193 192 -175 0.0639901
w 193 -192 175 0.0348257
w 193 -192 -175 0.39365
w 194 193 176 1
w 194 193 -176 1
w 194 -193 176 0
w 194 -193 -176 1
w 195 194 177 0
w 195 194 -177 1
w 195 -194 177 0
w 195 -194 -177 1
w 196 195 178 0.285872
w 196 195 -178 0.844222
w 196 -195 178 0.0604657
w 196 -195 -178 0.751204
w 197 196 179 0
w 197 196 -179 1
w 197 -196 179 0
w 197 -196 -179 0
w 198 197 180 1
w 198 197 -180 1
w 198 -197 180 1
w 198 -197 -180 0
w 199 181 0
w 199 -181 1
w 200 199 182 0.603471
w 200 199 -182 0.183328
w 200 -199 182 0.118515
w 200 -199 -182 0.599604
w 201 200 183 0
w 201 200 -183 0
w 201 -200 183 1
w 201 -200 -183 0
w 202 201 184 1
w 202 201 -184 0
w 202 -201 184 1
w 202 -201 -184 0
w 203 202 185 0
w 203 202 -185 1
w 203 -202 185 1
w 203 -202 -185 1
w 204 203 186 1
w 204 203 -186 1
w 204 -203 186 0
w 204 -203 -186 0
w 205 204 187 0
w 205 204 -187 1
w 205 -204 187 1
w 205 -204 -187 0
w 206 205 188 0
w 206 205 -188 1
w 206 -205 188 0
w 206 -205 -188 0
w 207 206 189 1
w 207 206 -189 0
w 207 -206 189 1
w 207 -206 -189 1
w 208 207 190 0
w 208 207 -190 1
w 208 -207 190 1
w 208 -207 -190 1
w 209 208 191 0
w 209 208 -191 1
w 209 -208 191 1
w 209 -208 -191 1
w 210 209 192 0
w 210 209 -192 0
w 210 -209 192 1
w 210 -209 -192 1
w 211 210 193 0
w 211 210 -193 0
w 211 -210 193 0
w 211 -210 -193 1
w 212 211 194 0
w 212 211 -194 1
w 212 -211 194 1
w 212 -211 -194 1
w 213 212 195 0
w 213 212 -195 1
w 213 -212 195 0
w 213 -212 -195 1
w 214 213 196 1
w 214 213 -196 1
w 214 -213 196 1
w 214 -213 -196 0
w 215 214 197 0.564512
w 215 214 -197 0.14216
w 215 -214 197 0.342526
w 215 -214 -197 0.665594
w 216 215 198 1
w 216 215 -198 0
w 216 -215 198 0
w 216 -215 -198 0
w 217 199 0.760481
w 217 -199 0.840436
w 218 217 200 0
w 218 217 -200 1
w 218 -217 200 0
w 218 -217 -200 0
w 219 218 201 1
w 219 218 -201 0
w 219 -218 201 1
w 219 -218 -201 1
w 220 219 202 0
w 220 219 -202 0
w 220 -219 202 1
w 220 -219 -202 1
w 221 220 203 0.541915
w 221 220 -203 0.337326
w 221 -220 203 0.48863
w 221 -220 -203 0.684075
w 222 221 204 0
w 222 221 -204 0
w 222 -221 204 0
w 222 -221 -204 1
w 223 222 205 1
w 223 222 -205 0
w 223 -222 205 0
w 223 -222 -205 1
w 224 223 206 0
w 224 223 -206 1
w 224 -223 206 0
w 224 -223 -206 0
w 225 224 207 1
w 225 224 -207 0
w 225 -224 207 1
w 225 -224 -207 0
w 226 225 208 1
w 226 225 -208 0
w 226 -225 208 1
w 226 -225 -208 0
w 227 226 209 1
w 227 226 -209 0
w 227 -226 209 0
w 227 -226 -209 1
w 228 227 210 1
w 228 227 -210 0
w 228 -227 210 1
w 228 -227 -210 0
w 229 228 211 0.342761
w 229 228 -211 0.877852
w 229 -228 211 0.997297
w 229 -228 -211 0.163932
w 230 229 212 1
w 230 229 -212 0
w 230 -229 212 1
w 230 -229 -212 1
w 231 230 213 0
w 231 230 -213 1
w 231 -230 213 0
w 231 -230 -213 0
w 232 231 214 1
w 232 231 -214 1
w 232 -231 214 0
w 232 -231 -214 1
w 233 232 215 1
w 233 232 -215 0
w 233 -232 215 1
w 233 -232 -215 0
w 234 233 216 0.702901
w 234 233 -216 0.0123209
w 234 -233 216 0.26892
w 234 -233 -216 0.127933
w 235 217 0.611681
w 235 -217 0.00578557
w 236 235 218 0.775613
w 236 235 -218 0.176894
w 236 -235 218 0.316499
w 236 -235 -218 0.620072
w 237 236 219 0
w 237 236 -219 1
w 237 -236 219 1
w 237 -236 -219 0
w 238 237 220 1
w 238 237 -220 1
w 238 -237 220 1
w 238 -237 -220 0
w 239 238 221 1
w 239 238 -221 1
w 239 -238 221 1
w 239 -238 -221 0
w 240 239 222 0.569455
w 240 239 -222 0.724287
w 240 -239 222 0.764185
w 240 -239 -222 0.272357
w 241 240 223 1
w 241 240 -223 0
w 241 -240 223 1
w 241 -240 -223 1
w 242 241 224 0
w 242 241 -224 0
w 242 -241 224 1
w 242 -241 -224 0
w 243 242 225 1
w 243 242 -225 0
w 243 -242 225 0
w 243 -242 -225 0
w 244 243 226 1
w 244 243 -226 1
w 244 -243 226 0
w 244 -243 -226 0
w 245 244 227 0.823699
w 245 244 -227 0.795193
w 245 -244 227 0.249278
w 245 -244 -227 0.0101847
w 246 245 228 0
w 246 245 -228 1
w 246 -245 228 1
w 246 -245 -228 0
w 247 246 229 0.69051
w 247 246 -229 0.823905
w 247 -246 229 0.252287
w 247 -246 -229 0.323743
w 248 247 230 0
w 248 247 -230 0
w 248 -247 230 1
w 248 -247 -230 1
w 249 248 231 0
w 249 248 -231 0
w 249 -248 231 1
w 249 -248 -231 0
w 250 249 232 0
w 250 249 -232 1
w 250 -249 232 1
w 250 -249 -232 0
w 251 250 233 0
w 251 250 -233 0
w 251 -250 233 1
w 251 -250 -233 0
w 252 251 234 0
w 252 251 -234 0
w 252 -251 234 0
w 252 -251 -234 1
w 253 235 1
w 253 -235 0
w 254 253 236 0
w 254 253 -236 1
w 254 -253 236 0
w 254 -253 -236 1
w 255 254 237 0
w 255 254 -237 1
w 255 -254 237 0
w 255 -254 -237 1
w 256 255 238 0.00664962
w 256 255 -238 0.663272
w 256 -255 238 0.159921
w 256 -255 -238 0.649679
w 257 256 239 0
w 257 256 -239 1
w 257 -256 239 0
w 257 -256 -239 1
w 258 257 240 0
w 258 257 -240 1
w 258 -257 240 1
w 258 -257 -240 1
w 259 258 241 0
w 259 258 -241 1
w 259 -258 241 0
w 259 -258 -241 1
w 260 259 242 1
w 260 259 -242 1
w 260 -259 242 0
w 260 -259 -242 1
w 261 260 243 0.757871
w 261 260 -243 0.991027
w 261 -260 243 0.843862
w 261 -260 -243 0.605884
w 262 261 244 0.646757
w 262 261 -244 0.612534
w 262 -261 244 0.643812
w 262 -261 -244 0.806678
w 263 262 245 1
w 263 262 -245 0
w 263 -262 245 0
w 263 -262 -245 1
w 264 263 246 1
w 264 263 -246 1
w 264 -263 246 0
w 264 -263 -246 0
w 265 264 247 1
w 265 264 -247 0
w 265 -264 247 1
w 265 -264 -247 0
w 266 265 248 0.272597
w 266 265 -248 0.62659
w 266 -265 248 0.759647
w 266 -265 -248 0.423786
w 267 266 249 0
w 267 266 -249 1
w 267 -266 249 0
w 267 -266 -249 0
w 268 267 250 0.294227
w 268 267 -250 0.220796
w 268 -267 250 0.400075
w 268 -267 -250 0.938039
w 269 268 251 0
w 269 268 -251 1
w 269 -268 251 1
w 269 -268 -251 0
w 270 269 252 0.677748
w 270 269 -252 0.94885
w 270 -269 252 0.697304
w 270 -269 -252 0.218729
w 271 253 1
w 271 -253 0
w 272 271 254 0
w 272 271 -254 1
w 272 -271 254 0
w 272 -271 -254 0
w 273 272 255 1
w 273 272 -255 1
w 273 -272 255 0
w 273 -272 -255 0
w 274 273 256 1
w 274 273 -256 0
w 274 -273 256 1
w 274 -273 -256 0
w 275 274 257 0
w 275 274 -257 1
w 275 -274 257 0
w 275 -274 -257 1
w 276 275 258 0
w 276 275 -258 0
w 276 -275 258 1
w 276 -275 -258 0
w 277 276 259 0
w 277 276 -259 1
w 277 -276 259 0
w 277 -276 -259 1
w 278 277 260 0
w 278 277 -260 0
w 278 -277 260 1
w 278 -277 -260 0
w 279 278 261 0.414047
w 279 278 -261 0.340372
w 279 -278 261 0.66573
w 279 -278 -261 0.452238
w 280 279 262 0
w 280 279 -262 1
w 280 -279 262 1
w 280 -279 -262 0
w 281 280 263 0.939413
w 281 280 -263 0.48958
w 281 -280 263 0.757996
w 281 -280 -263 0.997279
w 282 281 264 0
w 282 281 -264 1
w 282 -281 264 1
w 282 -281 -264 1
w 283 282 265 1
w 283 282 -265 0
w 283 -282 265 1
w 283 -282 -265 1
w 284 283 266 0
w 284 283 -266 1
w 284 -283 266 1
w 284 -283 -266 0
w 285 284 267 1
w 285 284 -267 0
w 285 -284 267 1
w 285 -284 -267 1
w 286 285 268 0.958015
w 286 285 -268 0.311743
w 286 -285 268 0.0460951
w 286 -285 -268 0.501851
w 287 286 269 1
w 287 286 -269 1
w 287 -286 269 1
w 287 -286 -269 0
w 288 287 270 0
w 288 287 -270 0
w 288 -287 270 0
w 288 -287 -270 1
w 289 271 1
w 289 -271 0
w 290 289 272 0
w 290 289 -272 1
w 290 -289 272 0
w 290 -289 -272 0
w 291 290 273 0.0776396
w 291 290 -273 0.151307
w 291 -290 273 0.042525
w 291 -290 -273 0.14695
w 292 291 274 1
w 292 291 -274 0
w 292 -291 274 1
w 292 -291 -274 0
w 293 292 275 1
w 293 292 -275 0
w 293 -292 275 0
w 293 -292 -275 1
w 294 293 276 1
w 294 293 -276 0
w 294 -293 276 1
w 294 -293 -276 0
w 295 294 277 0
w 295 294 -277 0
w 295 -294 277 1
w 295 -294 -277 1
w 296 295 278 0
w 296 295 -278 1
w 296 -295 278 0
w 296 -295 -278 0
w 297 296 279 1
w 297 296 -279 0
w 297 -296 279 1
w 297 -296 -279 1
w 298 297 280 0.394074
w 298 297 -280 0.619284
w 298 -297 280 0.395547
w 298 -297 -280 0.973438
w 299 298 281 1
w 299 298 -281 0
w 299 -298 281 0
w 299 -298 -281 1
w 300 299 282 0
w 300 299 -282 0
w 300 -299 282 1
w 300 -299 -282 1
w 301 300 283 1
w 301 300 -283 1
w 301 -300 283 0
w 301 -300 -283 1
w 302 301 284 0.134102
w 302 301 -284 0.247888
w 302 -301 284 0.0407574
w 302 -301 -284 0.211764
w 303 302 285 0.251054
w 303 302 -285 0.21661
w 303 -302 285 0.554178
w 303 -302 -285 0.612658
w 304 303 286 1
w 304 303 -286 0
w 304 -303 286 1
w 304 -303 -286 0
w 305 304 287 0.056088
w 305 304 -287 0.698834
w 305 -304 287 0.844716
w 305 -304 -287 0.828546
w 306 305 288 1
w 306 305 -288 0
w 306 -305 288 1
w 306 -305 -288 1
w 307 289 1
w 307 -289 0
w 308 307 290 1
w 308 307 -290 0
w 308 -307 290 1
w 308 -307 -290 0
w 309 308 291 1
w 309 308 -291 1
w 309 -308 291 0
w 309 -308 -291 1
w 310 309 292 0
w 310 309 -292 1
w 310 -309 292 1
w 310 -309 -292 1
w 311 310 293 1
w 311 310 -293 1
w 311 -310 293 0
w 311 -310 -293 1
w 312 311 294 0
w 312 311 -294 1
w 312 -311 294 1
w 312 -311 -294 0
w 313 312 295 0.00363846
w 313 312 -295 0.695515
w 313 -312 295 0.596634
w 313 -312 -295 0.708363
w 314 313 296 0.155836
w 314 313 -296 0.901234
w 314 -313 296 0.25131
w 314 -313 -296 0.670998
w 315 314 297 1
w 315 314 -297 0
w 315 -314 297 1
w 315 -314 -297 1
w 316 315 298 0
w 316 315 -298 0
w 316 -315 298 0
w 316 -315 -298 1
w 317 316 299 0.918342
w 317 316 -299 0.155201
w 317 -316 299 0.172464
w 317 -316 -299 0.983489
w 318 317 300 0
w 318 317 -300 1
w 318 -317 300 1
w 318 -317 -300 1
w 319 318 301 1
w 319 318 -301 1
w 319 -318 301 1
w 319 -318 -301 0
w 320 319 302 0
w 320 319 -302 1
w 320 -319 302 1
w 320 -319 -302 0
w 321 320 303 0
w 321 320 -303 1
w 321 -320 303 1
w 321 -320 -303 1
w 322 321 304 0.0291064
w 322 321 -304 0.611744
w 322 -321 304 0.0322808
w 322 -321 -304 0.840396
w 323 322 305 1
w 323 322 -305 1
w 323 -322 305 0
w 323 -322 -305 1
w 324 323 306 1
w 324 323 -306 0
w 324 -323 306 1
w 324 -323 -306 1